GLPSOL: GLPK LP/MIP Solver, v4.55
Parameter(s) specified in the command line:
 -m tmp.mod
Reading model section from tmp.mod...
Reading data section from tmp.mod...
6037 lines were read
Generating obj...
Generating kirhoff...
Generating init_charge...
Generating batt_size...
Model has been successfully generated
GLPK Simplex Optimizer, v4.55
6161 rows, 10673 columns, 22598 non-zeros
Preprocessing...
5089 rows, 10497 columns, 22224 non-zeros
Scaling...
 A: min|aij| =  1.000e+00  max|aij| =  1.000e+00  ratio =  1.000e+00
Problem data seem to be well scaled
Constructing initial basis...
Size of triangular part is 4220
      0: obj =   0.000000000e+00  infeas =  4.776e+03 (869)
    500: obj =   0.000000000e+00  infeas =  3.158e+03 (672)
   1000: obj =   5.500000000e+01  infeas =  2.570e+03 (484)
   1500: obj =   3.542500000e+02  infeas =  1.538e+03 (427)
   2000: obj =   6.080000000e+02  infeas =  1.400e+01 (364)
*  2024: obj =   6.170000000e+02  infeas =  0.000e+00 (360)
*  2500: obj =   3.130000000e+02  infeas =  1.665e-15 (350)
*  2933: obj =   1.230000000e+02  infeas =  0.000e+00 (340)
OPTIMAL LP SOLUTION FOUND
Time used:   1.2 secs
Memory used: 20.6 Mb (21590562 bytes)
#OUTPUT:
123
-34 -65 -49 -6 1 -34 -11 -42 0 0 7 -3 -43 2 2 7 -24 -3 0 0 -3 0 -2 0 1 0 0 0 -12 -29 1 0 0 0 0 -2 0 0 0 0 0 -10 12 0 0 0 0 0 0 0 0 -10 -10 0 4 0 0 0 0 0 -3 0 12 0 0 1 0 0 0 0 0 0 0 0 0 0 0 0 0 -6 0 -29 1 2 0 -27 0 0 0 -4 0 0 0 0 0 11 0 0 0 1 0 2 0 0 0 0 0 0 0 0 0 0 0 0 0 -14 0 0 0 2 0 0 0 0 0 0 0 0 0 -3 0 0 0 0 0 0 0 0 0 -4 2 0 0 1 0 0 0 0 0 -2 0 0 0 2 0 0 0 -4 -10 0 0 0 0 0 0 0 0 0 0 0 0 0 0 0 -1 0 12 3 0 0 -11 0 0 0 0 0 0 0 0 0 0 0 3 0 0 2 -14 0 -1 0 0 0 0 0 0 -14 -2 0 0 0 0 0 1 0 0 0 0 0 0 0 0 0 0 2 4 -1 0 0 0 0 0 0 0 0 0 0 0 -13 0 0 0 0 0 0 0 0 0 0 0 0 0 0 0 0 0 0 0 0 0 0 0 0 0 0 0 0 -27 0 0 0 0 0 0 -1 0 0 0 0 0 0 0 0 0 1 0 0 0 0 0 0 0 0 0 0 0 0 0 0 0 2 0 0 0 0 0 0 0 0 0 0 1 0 0 0 0 0 0 0 0 0 0 0 0 0 0 0 0 0 0 0 0 0 0 0 0 0 0 0 0 0 0 0 0 0 0 0 0 0 0 0 0 0 0 0 0 0 0 0 3 0 0 0 0 0 0 0 0 0 0 0 -11 0 0 0 0 0 -10 3 0 0 0 0 0 0 -12 0 -10 0 0 0 0 0 -2 0 0 0 0 0 0 0 0 0 0 0 0 0 -3 0 0 0 0 0 -1 0 0 -2 -4 12 0 0 0 0 0 4 -4 0 0 0 0 0 0 0 1 0 -1 0 0 0 0 0 -2 0 -1 0 0 0 0 0 0 0 0 0 0 0 1 -1 0 0 0 0 0 0 0 0 0 0 0 11 0 10 -3 0 0 12 0 0 0 0 0 0 0 0 0 0 0 0 0 0 0 0 0 0 0 0 0 0 0 0 0 0 0 0 0 0 0 0 0 0 0 0 0 0 0 0 0 0 0 0 0 0 0 0 0 0 0 0 0 0 0 0 0 0 0 0 0 0 0 0 0 0 0 
-79 -77 -71 -6 -2 -79 -56 -71 0 0 0 0 -68 -9 -2 0 -35 0 -1 7 0 -6 0 0 2 -6 0 -45 0 37 -11 -3 0 3 0 -1 0 1 -3 0 0 0 0 0 0 -1 0 0 0 0 1 5 0 0 -6 0 0 0 0 0 0 0 0 0 0 4 0 -3 0 0 1 5 0 0 0 0 0 5 0 1 0 33 3 0 0 0 -5 2 0 0 0 0 0 0 0 0 -1 0 0 3 0 2 0 0 0 0 -2 13 0 0 0 0 0 0 0 -7 0 0 0 0 0 0 0 0 0 0 0 -1 0 0 0 0 0 0 0 0 -1 0 2 0 0 0 -2 0 0 0 0 0 0 -4 -5 0 0 0 0 2 2 0 0 0 0 0 0 0 0 2 0 0 0 0 0 0 0 0 0 0 0 0 0 0 0 0 0 2 0 0 0 0 0 0 0 0 0 0 2 0 -7 0 -4 0 0 0 -6 0 0 -7 -4 0 0 0 0 0 4 0 0 -1 -3 0 0 0 0 0 0 0 5 0 0 0 0 0 3 0 0 0 0 0 0 -10 0 0 0 0 0 0 -1 0 0 0 0 0 0 0 0 0 0 0 1 0 0 0 0 0 0 0 0 0 0 -1 0 0 0 0 0 -1 0 0 5 0 0 0 0 0 0 -11 0 0 0 0 0 0 0 0 0 0 -3 0 0 0 0 0 -19 0 0 0 0 0 0 0 0 0 0 0 0 0 0 0 0 0 0 0 2 0 0 0 0 0 0 0 0 0 0 0 -5 0 3 0 0 0 0 0 0 0 0 0 0 0 0 0 5 0 0 2 0 0 0 0 0 0 4 0 0 1 0 0 19 0 0 0 0 0 0 0 0 0 0 -13 0 0 0 0 0 0 0 0 0 0 0 0 0 0 0 0 -2 0 0 0 0 -5 -4 0 0 -2 -5 0 0 0 0 -2 0 0 4 0 -4 1 0 0 -5 3 0 0 0 7 -7 -1 0 0 0 0 1 0 0 0 1 0 -2 -6 0 3 0 0 0 0 0 0 -2 0 0 0 5 -3 0 0 0 -5 3 -7 -2 0 0 0 -4 0 -1 0 0 -19 0 0 13 0 0 0 0 0 0 0 0 0 0 0 0 0 0 0 0 0 0 0 0 0 0 0 0 0 0 0 0 0 0 0 0 0 0 0 0 0 0 0 0 0 0 0 0 0 0 0 0 0 0 0 0 0 0 0 0 0 0 0 0 0 0 0 0 0 0 0 0 0 0 0 0 
0 -3 0 0 49 0 0 0 0 0 1 0 -3 0 2 0 -3 -3 0 0 0 -3 0 0 0 -3 0 0 0 -10 0 0 0 0 0 0 0 0 3 0 0 0 3 -2 0 0 0 0 0 -2 0 0 0 0 -6 0 1 0 0 0 0 0 3 1 3 0 0 0 52 0 0 0 0 0 0 0 0 0 0 0 0 -10 0 0 0 0 0 0 3 0 0 0 0 0 0 0 0 0 -1 0 0 0 0 0 0 0 0 0 0 0 -50 0 0 0 0 0 0 0 1 3 0 0 0 0 -52 0 0 0 0 0 0 0 0 0 -2 0 0 0 0 0 3 0 0 0 0 0 0 0 0 0 0 0 0 0 0 0 0 0 0 0 0 0 0 0 0 0 0 0 0 0 0 0 0 3 0 0 0 0 0 0 0 0 0 0 0 0 0 0 0 0 0 0 0 0 3 0 0 0 0 0 0 0 -2 0 0 0 0 0 0 0 0 0 0 0 0 0 0 0 0 0 0 0 0 0 5 0 0 0 0 0 0 0 0 0 0 0 0 0 0 0 0 0 0 0 0 0 0 0 0 0 0 0 0 0 0 0 0 0 0 0 0 0 0 0 0 0 0 0 0 0 0 0 0 0 0 0 0 0 0 0 0 0 0 0 0 0 0 0 0 0 0 0 0 0 0 0 0 0 0 0 -2 0 0 0 0 0 0 0 0 0 0 0 0 0 0 0 0 0 0 0 -2 0 0 0 0 0 0 0 0 0 0 0 0 0 0 0 0 0 0 0 0 0 0 0 0 0 1 0 0 0 0 0 0 0 0 0 0 0 0 0 0 0 -1 0 2 0 0 0 0 0 0 0 0 0 0 0 0 0 0 0 0 0 0 0 0 0 0 -3 0 -3 0 0 0 0 0 -1 52 0 -3 0 0 0 -5 0 0 0 0 -3 0 3 0 0 0 0 0 0 -5 0 0 0 0 0 0 -1 1 0 0 0 0 0 0 0 0 0 0 -2 0 0 0 0 0 0 0 0 2 0 0 0 0 0 0 0 0 0 0 0 0 0 0 0 0 0 0 1 0 -2 0 0 0 0 0 0 0 0 0 0 0 0 0 0 0 0 0 0 0 0 0 0 0 0 0 0 0 0 0 0 0 0 0 0 0 0 0 0 0 0 0 0 0 0 0 0 0 0 0 0 0 0 0 0 0 0 0 0 0 0 0 0 0 0 0 0 0 0 0 0 0 0 0 0 0 
-92 -96 -66 -6 42 -92 0 -44 0 -4 -18 0 -41 0 0 -23 -22 -3 0 0 0 0 -6 0 -21 0 0 0 15 -22 4 3 9 -16 0 0 0 0 -1 0 0 0 0 -3 2 0 0 0 -74 4 0 0 -10 4 0 0 0 0 0 0 0 4 0 -4 9 0 0 0 79 0 0 4 0 0 -5 0 0 3 0 0 0 -22 0 0 0 0 0 0 -1 2 14 0 -24 0 0 0 0 0 4 0 0 0 0 0 0 -2 0 49 0 0 0 -3 0 0 0 -14 0 0 1 16 0 5 0 0 -79 0 0 0 0 0 0 0 0 0 4 0 0 -10 0 0 16 -17 0 -2 0 0 0 2 0 2 0 2 0 1 0 0 0 0 0 0 0 0 0 0 0 -1 0 0 0 0 0 0 0 16 -93 0 0 0 -6 0 0 0 0 0 0 0 0 0 7 2 0 -2 0 0 15 0 -14 0 0 0 0 0 0 0 0 -14 0 0 0 0 0 5 0 3 0 0 0 0 0 0 0 0 0 0 0 0 0 0 0 0 0 0 -4 0 0 0 0 -29 2 0 -8 0 0 0 0 0 0 0 0 3 0 0 0 0 -6 0 0 0 0 -2 0 0 4 0 0 0 0 0 0 1 0 0 0 0 0 0 0 0 0 0 0 0 -1 6 0 0 0 0 0 0 0 0 0 0 0 0 -2 0 -17 0 0 0 0 0 0 0 0 0 0 0 0 0 0 0 0 0 0 0 0 0 0 0 0 0 0 0 0 0 -5 0 0 0 -3 0 0 0 0 0 0 0 0 0 0 0 0 0 0 0 0 0 -17 -1 0 0 -98 0 0 0 0 10 0 0 0 0 0 0 0 0 0 0 0 0 0 0 0 -49 0 0 -4 0 0 0 0 0 0 0 -10 -9 0 0 -14 0 0 0 0 -1 79 0 -16 -2 -2 0 0 0 -5 2 0 -15 0 0 0 -8 0 0 0 0 0 46 0 4 -7 6 0 2 -2 2 0 0 0 -1 0 0 0 1 -6 0 0 0 0 2 0 0 0 0 0 15 -10 0 3 0 0 0 0 0 0 17 1 0 0 0 0 -10 0 0 0 0 0 0 49 0 0 4 0 0 0 0 0 0 0 0 0 0 0 0 0 0 0 0 0 0 0 0 0 0 0 0 0 0 0 0 0 0 0 0 0 0 0 0 0 0 0 0 0 0 0 0 0 0 0 0 0 0 0 0 0 0 0 0 0 0 0 0 0 0 0 0 0 0 0 0 0 
-23 -69 -63 -6 -4 -23 1 -59 0 0 0 0 -59 -2 -2 0 -60 0 0 1 1 0 2 0 0 0 0 0 -17 28 0 -2 0 -2 0 0 0 0 0 0 0 1 0 -1 0 0 0 0 0 0 0 6 0 0 0 0 0 0 0 0 0 0 0 0 0 -92 0 0 0 0 0 0 0 0 0 0 0 0 0 0 0 22 0 0 0 0 -5 0 0 -4 0 0 0 0 0 -3 0 0 0 0 0 0 0 0 0 0 0 0 0 0 0 0 0 0 0 0 0 0 0 0 0 0 0 0 0 0 0 0 0 0 0 0 0 0 0 0 0 0 0 0 0 0 0 0 0 0 0 0 0 -4 0 0 0 0 0 0 0 0 0 0 0 0 0 0 0 0 0 0 0 0 0 0 0 0 0 0 17 0 0 0 3 0 0 0 0 0 0 0 0 0 0 0 0 0 0 0 0 0 -4 0 0 0 0 0 0 0 -4 0 0 0 0 0 -92 0 0 0 0 0 0 0 0 0 0 -2 4 0 3 0 0 0 0 0 0 0 0 0 0 -24 0 0 -9 0 0 0 0 0 0 0 0 0 0 0 0 -2 0 0 0 0 0 0 0 0 0 0 0 0 0 0 0 0 -2 0 3 -1 0 0 5 0 0 0 0 0 0 0 0 0 0 -2 0 0 0 0 0 0 -2 0 0 0 0 -2 0 0 0 0 0 0 0 0 0 0 0 0 0 0 0 0 0 0 0 0 0 0 0 0 0 0 0 0 0 0 0 0 0 0 0 0 0 0 0 0 0 0 0 0 0 0 0 0 5 0 0 0 0 0 0 0 0 0 3 0 0 0 0 0 0 0 0 0 0 0 3 0 0 0 0 0 0 -4 0 0 0 0 0 0 -17 0 0 0 0 0 -1 0 0 0 0 0 0 0 -4 0 0 0 -4 0 0 0 0 0 0 -17 6 5 92 0 0 2 -4 17 0 9 -9 0 0 4 -4 0 0 0 0 0 2 -3 1 0 0 0 2 2 0 0 2 0 0 0 0 0 0 0 0 0 0 0 0 -5 0 -7 0 0 0 0 -7 0 0 0 0 0 0 -3 0 0 4 0 0 17 0 0 0 0 0 0 0 0 0 0 0 0 0 0 0 0 0 0 0 0 0 0 0 0 0 0 0 0 0 0 0 0 0 0 0 0 0 0 0 0 0 0 0 0 0 0 0 0 0 0 0 0 0 0 0 0 0 0 0 0 0 0 0 0 0 0 0 
-96 6 0 6 14 -96 -17 0 0 0 0 0 0 -6 -2 0 0 -1 -4 0 0 0 0 0 21 0 0 0 -27 0 -2 -2 0 -5 0 -6 0 -4 0 0 0 -10 12 0 0 0 0 0 0 0 0 -10 -10 0 -2 0 0 0 0 0 0 0 12 0 0 4 0 0 0 0 0 0 0 0 0 0 4 0 -2 -35 0 0 0 4 0 0 0 0 0 0 0 0 0 0 0 5 0 0 0 0 0 2 0 0 0 -1 -4 23 0 0 0 1 0 0 0 -3 0 0 0 3 0 0 0 0 0 0 0 1 0 0 0 0 0 0 0 0 0 0 0 6 3 17 2 0 0 0 0 0 0 0 0 0 0 0 0 0 4 6 -10 0 0 -4 0 0 -4 17 0 0 0 2 0 0 0 -16 0 0 27 0 0 0 -5 0 0 0 0 0 0 0 0 0 0 0 0 -1 1 0 -3 0 -4 1 0 0 0 0 0 -3 0 0 -58 0 0 0 4 -6 0 0 2 0 0 0 0 0 0 0 -5 0 -15 0 0 0 0 0 0 0 0 0 0 -46 0 0 -9 0 0 0 1 0 0 0 0 -6 0 0 0 0 0 0 0 0 0 0 0 0 0 0 0 0 0 0 0 9 0 0 -15 0 0 0 0 0 0 -58 0 0 0 -2 0 0 0 2 0 0 -4 0 0 0 0 0 0 0 17 0 -1 0 0 0 0 0 0 0 0 0 0 0 0 0 0 0 0 0 -2 0 5 0 0 0 0 0 0 0 0 0 0 3 0 0 0 0 0 0 0 0 0 0 0 0 0 0 0 0 0 0 17 17 0 0 0 0 0 0 0 0 -4 -1 0 -4 1 0 0 0 0 0 -5 0 0 0 0 -23 -10 0 0 0 0 0 0 0 -27 0 0 0 0 0 0 0 -2 0 0 0 0 0 -7 2 0 -4 -1 0 0 0 0 -1 -1 -13 0 0 -4 0 -2 0 5 29 0 6 0 0 0 0 0 0 0 0 0 -9 0 15 0 0 1 0 -2 0 0 0 0 0 0 2 -2 0 0 -3 0 0 0 0 0 0 0 -17 -17 0 0 0 0 0 1 0 4 -1 0 5 23 10 0 0 0 27 0 0 0 0 0 0 0 0 0 0 0 0 0 0 0 0 0 0 0 0 0 0 0 0 0 0 0 0 0 0 0 0 0 0 0 0 0 0 0 0 0 0 0 0 0 0 0 0 0 0 0 0 0 0 0 0 0 0 0 0 0 0 0 0 0 0 0 
-40 -81 -75 -6 8 -40 -12 -70 0 0 0 -3 -68 -7 -2 0 6 -3 -1 9 -3 -4 0 -2 0 -4 0 0 -27 2 0 -1 0 0 0 -5 0 -3 -2 0 0 -3 -1 0 0 0 0 0 0 0 0 -3 0 0 -3 0 0 0 0 0 0 0 -1 0 0 4 0 -2 12 0 0 0 0 0 0 0 0 0 0 1 0 0 0 2 0 0 0 3 0 0 0 0 0 0 0 0 0 0 0 0 0 2 0 0 0 0 -3 0 0 0 0 0 -94 0 0 -14 0 -42 0 0 0 0 0 -94 -12 0 -94 -1 0 0 0 0 0 0 0 0 0 0 3 3 0 0 0 0 0 0 0 0 0 0 -5 0 0 -1 0 3 3 3 0 0 0 0 0 0 0 0 0 0 0 0 0 0 0 0 0 0 27 0 0 0 0 0 0 2 0 0 0 0 0 0 0 0 0 0 0 -1 -14 -94 -4 0 0 0 0 0 0 -14 0 0 0 0 0 0 4 0 0 0 0 0 0 0 0 0 0 -2 0 0 0 0 0 0 0 0 0 0 0 0 0 -28 0 0 0 0 0 -42 -1 0 0 0 0 0 0 0 0 0 0 0 0 0 0 0 0 0 0 0 0 0 0 2 0 0 0 0 0 -1 0 0 0 0 0 0 0 0 0 0 0 0 0 0 0 0 0 0 0 0 0 0 0 0 0 0 0 0 0 0 0 0 0 0 0 0 0 0 0 0 0 0 0 0 0 0 0 0 -42 0 0 0 0 0 0 0 0 0 0 0 0 0 0 0 0 0 0 0 0 0 0 0 0 0 0 0 0 0 0 0 0 0 0 0 0 0 0 1 0 0 0 0 0 0 0 0 0 0 0 0 0 0 0 0 0 0 0 0 0 0 -27 0 0 0 0 0 0 0 -2 0 0 0 12 0 -4 0 0 -3 -3 0 0 0 0 0 0 14 2 0 -4 0 0 2 0 28 0 0 0 7 -7 0 0 0 0 -2 0 0 0 0 1 0 0 0 0 0 0 0 0 0 0 0 0 0 0 0 0 0 0 0 0 0 0 0 0 0 0 0 0 0 -1 0 0 0 0 0 0 0 0 0 0 27 0 0 0 0 0 0 0 0 0 0 0 0 0 0 0 0 0 0 0 0 0 0 0 0 0 0 0 0 0 0 0 0 0 0 0 0 0 0 0 0 0 0 0 0 0 0 0 0 0 0 0 0 0 0 0 0 0 0 0 0 0 0 0 0 0 0 0 
-97 -54 -34 -6 19 -97 -58 -31 0 0 0 -3 -28 -29 2 0 -35 3 4 -1 1 9 -6 0 -21 9 0 1 -27 -19 -11 -3 2 -11 0 3 0 1 -3 -2 0 -10 12 7 0 1 -2 0 -10 -5 -2 -10 0 -18 6 0 1 0 0 0 1 -18 12 0 2 0 0 -3 73 0 -2 -23 0 0 0 -2 0 -71 2 2 1 -17 0 -2 0 0 0 0 0 0 -14 0 0 0 0 34 1 0 0 0 14 -2 0 0 -4 2 0 0 0 -2 0 0 0 0 -1 -14 0 0 -1 18 0 0 0 0 -73 0 0 0 0 1 0 0 0 0 -5 0 1 0 0 0 18 12 0 0 0 0 0 -4 0 0 -3 0 0 -1 0 0 0 0 -10 0 -5 -6 0 0 -6 -17 0 0 0 -2 0 0 0 0 0 0 27 -1 -6 0 -34 0 0 -2 0 0 0 0 -2 0 0 1 -1 0 -17 -1 -14 0 0 0 0 0 1 0 0 -14 0 0 0 0 0 0 0 4 0 1 0 0 0 0 0 0 0 2 0 0 -43 -4 0 0 0 0 0 0 0 0 0 -38 0 0 -3 -6 0 0 0 0 0 0 0 4 0 0 0 0 -6 0 0 0 0 0 0 0 0 0 -1 0 0 -2 0 0 0 0 15 -1 0 0 0 0 0 0 0 0 0 -11 0 0 0 0 -96 0 0 0 0 0 0 -7 0 0 12 0 -19 0 0 0 0 0 0 0 0 0 -1 0 0 0 0 0 0 0 2 0 0 0 0 0 0 0 0 0 0 0 0 0 -8 0 0 0 0 0 0 0 0 0 0 0 0 0 1 0 0 0 12 -17 0 0 0 0 0 0 0 4 0 0 -1 0 -16 0 0 -11 0 0 -34 0 0 0 0 0 -10 0 0 0 0 1 0 0 -27 0 -10 -2 0 0 14 -14 2 4 2 1 73 5 -19 2 0 0 0 4 1 -1 1 28 0 -17 -2 -8 0 -1 0 -2 0 26 6 -1 -3 7 -1 4 -4 0 1 5 -3 0 0 -15 1 0 -9 1 0 0 -4 0 0 0 1 -2 0 0 0 0 8 0 0 0 0 0 0 -12 17 0 0 0 0 -4 0 1 0 16 11 34 0 10 0 0 -1 27 0 0 0 0 0 0 0 0 0 0 0 0 0 0 0 0 0 0 0 0 0 0 0 0 0 0 0 0 0 0 0 0 0 0 0 0 0 0 0 0 0 0 0 0 0 0 0 0 0 0 0 0 0 0 0 0 0 0 0 0 0 0 0 0 0 0 0 
-97 -42 -38 0 0 -97 -14 -27 0 0 0 -3 -20 -3 0 0 -12 0 -3 -8 0 0 0 0 -21 0 0 0 0 -36 -11 0 0 0 0 -5 0 -3 0 0 0 0 0 -3 0 0 0 0 -10 4 0 0 -24 -4 -6 0 0 0 0 0 0 -4 0 0 0 0 0 0 58 0 0 0 0 0 0 0 0 0 0 0 0 -37 -3 0 0 0 0 0 0 -4 -10 0 0 0 0 6 0 0 0 -3 36 2 0 0 0 -5 0 0 0 0 0 -3 0 0 0 0 0 0 0 1 0 0 0 0 -58 0 0 0 0 0 0 0 0 -2 4 0 0 0 0 0 1 17 -2 -7 0 0 0 0 0 0 0 0 0 0 0 0 0 0 0 -2 0 0 0 0 0 -72 0 0 0 0 0 0 0 -16 -4 0 0 0 0 0 -6 0 0 0 0 0 0 0 7 0 0 -7 0 3 1 0 0 0 0 -3 0 0 0 0 0 0 0 0 0 0 0 0 0 0 0 0 0 0 0 0 0 0 0 1 5 -4 0 0 0 0 0 0 0 0 0 0 0 -10 0 0 0 0 0 0 0 0 0 0 0 0 -2 0 0 0 0 0 -2 -60 0 0 0 0 0 0 0 0 0 0 0 0 0 0 0 0 0 0 0 0 0 0 0 0 0 -11 0 0 0 0 0 0 0 0 0 0 0 0 0 0 17 0 -19 0 0 0 0 0 0 0 0 0 0 0 0 0 0 0 0 0 0 0 6 0 0 0 0 0 -60 0 0 0 0 5 0 0 0 0 -2 0 0 0 -4 0 0 0 0 0 0 0 0 0 17 17 0 0 0 0 0 0 0 0 0 0 0 0 19 0 0 0 0 0 -6 0 0 0 0 -49 0 4 0 0 0 0 0 0 0 0 -4 0 0 0 -14 -36 -2 0 0 0 58 -4 -1 0 0 0 -5 0 0 7 0 -1 3 0 1 0 0 0 0 -1 -5 0 0 0 0 0 0 4 -2 0 0 0 0 0 0 0 0 0 -8 0 0 0 0 0 0 0 0 0 -1 0 0 -5 0 0 2 4 0 0 -3 -10 -17 0 0 0 4 0 0 0 0 -19 0 6 49 0 -4 0 0 0 0 0 0 0 0 0 0 0 0 0 0 0 0 0 0 0 0 0 0 0 0 0 0 0 0 0 0 0 0 0 0 0 0 0 0 0 0 0 0 0 0 0 0 0 0 0 0 0 0 0 0 0 0 0 0 0 0 0 0 0 0 0 0 0 0 0 0 
#OUTPUT END
Model has been successfully processed
